Version identifier: 22.1.0.0 | 2022-03-09 | 1a383f8ce
CPXPARAM_Read_DataCheck                          1
1 of 1 MIP starts provided solutions.
MIP start 'm1' defined initial solution with objective 15.0000.
Tried aggregator 3 times.
MIP Presolve eliminated 1384 rows and 433 columns.
MIP Presolve modified 48 coefficients.
Aggregator did 1011 substitutions.
Reduced MIP has 417 rows, 1076 columns, and 2584 nonzeros.
Reduced MIP has 1068 binaries, 8 generals, 0 SOSs, and 0 indicators.
Presolve time = 0.01 sec. (7.44 ticks)
Probing fixed 16 vars, tightened 0 bounds.
Probing time = 0.00 sec. (1.21 ticks)
Tried aggregator 2 times.
Detecting symmetries...
MIP Presolve eliminated 18 rows and 22 columns.
Aggregator did 6 substitutions.
Reduced MIP has 393 rows, 1048 columns, and 2492 nonzeros.
Reduced MIP has 1040 binaries, 8 generals, 0 SOSs, and 0 indicators.
Presolve time = 0.00 sec. (2.72 ticks)
Probing time = 0.00 sec. (0.98 ticks)
Clique table members: 2247.
MIP emphasis: balance optimality and feasibility.
MIP search method: dynamic search.
Parallel mode: deterministic, using up to 8 threads.
Root relaxation solution time = 0.01 sec. (3.89 ticks)

        Nodes                                         Cuts/
   Node  Left     Objective  IInf  Best Integer    Best Bound    ItCnt     Gap

*     0+    0                           15.0000        0.0000           100.00%
      0     0        8.4808   307       15.0000        8.4808      351   43.46%
      0     0       14.0000   221       15.0000      Cuts: 63      684    6.67%
      0     0        cutoff             15.0000                   2803    0.00%
Elapsed time = 0.29 sec. (148.72 ticks, tree = 0.01 MB, solutions = 1)

Implied bound cuts applied:  2
Zero-half cuts applied:  11
Gomory fractional cuts applied:  9

Root node processing (before b&c):
  Real time             =    0.29 sec. (148.80 ticks)
Parallel b&c, 8 threads:
  Real time             =    0.00 sec. (0.00 ticks)
  Sync time (average)   =    0.00 sec.
  Wait time (average)   =    0.00 sec.
                          ------------
Total (root+branch&cut) =    0.29 sec. (148.80 ticks)
Version identifier: 22.1.0.0 | 2022-03-09 | 1a383f8ce
CPXPARAM_Read_DataCheck                          1
1 of 1 MIP starts provided solutions.
MIP start 'm1' defined initial solution with objective 15.0000.
Tried aggregator 3 times.
MIP Presolve eliminated 1384 rows and 433 columns.
MIP Presolve modified 48 coefficients.
Aggregator did 1011 substitutions.
Reduced MIP has 417 rows, 1076 columns, and 2584 nonzeros.
Reduced MIP has 1068 binaries, 8 generals, 0 SOSs, and 0 indicators.
Presolve time = 0.01 sec. (7.44 ticks)
Probing fixed 16 vars, tightened 0 bounds.
Probing time = 0.00 sec. (1.21 ticks)
Tried aggregator 2 times.
Detecting symmetries...
MIP Presolve eliminated 18 rows and 22 columns.
Aggregator did 6 substitutions.
Reduced MIP has 393 rows, 1048 columns, and 2492 nonzeros.
Reduced MIP has 1040 binaries, 8 generals, 0 SOSs, and 0 indicators.
Presolve time = 0.00 sec. (2.72 ticks)
Probing time = 0.00 sec. (0.98 ticks)
Clique table members: 2247.
MIP emphasis: balance optimality and feasibility.
MIP search method: dynamic search.
Parallel mode: deterministic, using up to 8 threads.
Root relaxation solution time = 0.01 sec. (3.89 ticks)

        Nodes                                         Cuts/
   Node  Left     Objective  IInf  Best Integer    Best Bound    ItCnt     Gap

*     0+    0                           15.0000        0.0000           100.00%
      0     0        8.4808   307       15.0000        8.4808      351   43.46%
      0     0       14.0000   221       15.0000      Cuts: 63      684    6.67%
      0     0        cutoff             15.0000                   2803    0.00%
Elapsed time = 0.30 sec. (148.72 ticks, tree = 0.01 MB, solutions = 1)

Implied bound cuts applied:  2
Zero-half cuts applied:  11
Gomory fractional cuts applied:  9

Root node processing (before b&c):
  Real time             =    0.30 sec. (148.80 ticks)
Parallel b&c, 8 threads:
  Real time             =    0.00 sec. (0.00 ticks)
  Sync time (average)   =    0.00 sec.
  Wait time (average)   =    0.00 sec.
                          ------------
Total (root+branch&cut) =    0.30 sec. (148.80 ticks)
